c colouring generated by benchmark framework
p edge 125 3891
v 1 4
v 2 8
v 3 12
v 4 18
v 5 22
v 6 9
v 7 21
v 8 8
v 9 20
v 10 15
v 11 2
v 12 5
v 13 16
v 14 10
v 15 11
v 16 5
v 17 0
v 18 0
v 19 4
v 20 11
v 21 6
v 22 15
v 23 10
v 24 0
v 25 13
v 26 1
v 27 14
v 28 11
v 29 1
v 30 20
v 31 20
v 32 10
v 33 2
v 34 10
v 35 5
v 36 6
v 37 18
v 38 2
v 39 20
v 40 11
v 41 10
v 42 20
v 43 22
v 44 4
v 45 7
v 46 11
v 47 13
v 48 4
v 49 14
v 50 2
v 51 16
v 52 8
v 53 15
v 54 3
v 55 7
v 56 2
v 57 9
v 58 7
v 59 6
v 60 10
v 61 19
v 62 18
v 63 8
v 64 18
v 65 1
v 66 3
v 67 1
v 68 16
v 69 19
v 70 19
v 71 0
v 72 13
v 73 3
v 74 13
v 75 4
v 76 21
v 77 15
v 78 17
v 79 9
v 80 15
v 81 14
v 82 5
v 83 0
v 84 6
v 85 4
v 86 6
v 87 8
v 88 7
v 89 1
v 90 13
v 91 14
v 92 20
v 93 5
v 94 5
v 95 17
v 96 12
v 97 16
v 98 18
v 99 7
v 100 3
v 101 13
v 102 9
v 103 8
v 104 12
v 105 21
v 106 15
v 107 13
v 108 9
v 109 12
v 110 1
v 111 16
v 112 17
v 113 7
v 114 5
v 115 9
v 116 20
v 117 21
v 118 16
v 119 6
v 120 14
v 121 19
v 122 0
v 123 7
v 124 19
v 125 12
